nN = 5;
nR = 25;
nH = 1;

a = [[16, 18, 22, 17, 21, 18, 15, 20, 16, 17, 17, 20, 23, 18, 24, 25, 22, 20, 20, 23, 25, 16, 17, 24, 18], [23, 15, 16, 16, 15, 21, 20, 25, 18, 16, 25, 15, 20, 18, 16, 16, 20, 17, 17, 22, 23, 22, 20, 17, 18], [21, 20, 22, 20, 24, 24, 24, 23, 18, 15, 18, 17, 19, 17, 21, 25, 21, 16, 22, 16, 17, 25, 20, 18, 19], [21, 18, 22, 24, 24, 24, 22, 21, 20, 15, 20, 18, 25, 24, 25, 15, 19, 15, 21, 23, 23, 24, 20, 17, 15], [18, 19, 24, 16, 17, 16, 17, 22, 23, 24, 15, 20, 23, 17, 21, 24, 23, 22, 17, 16, 25, 15, 20, 23, 16]];
c = [[[0, 0, 0, 0, 0, 0, 0, 0, 0, 0, 0, 0, 0, 0, 0, 0, 0, 0, 0, 0, 0, 0, 0, 0, 0], [48, 44, 49, 41, 38, 38, 39, 43, 48, 33, 37, 37, 44, 32, 36, 46, 35, 30, 47, 43, 49, 41, 31, 45, 37], [42, 41, 48, 45, 35, 47, 32, 39, 32, 43, 32, 33, 43, 47, 48, 40, 43, 45, 43, 31, 41, 30, 47, 48, 38], [37, 41, 45, 36, 38, 33, 38, 31, 37, 31, 35, 49, 31, 39, 30, 34, 35, 44, 50, 50, 50, 48, 50, 31, 37], [42, 31, 37, 43, 45, 49, 41, 38, 30, 34, 36, 41, 44, 42, 34, 33, 37, 48, 41, 35, 31, 34, 49, 41, 40]], [[0, 0, 0, 0, 0, 0, 0, 0, 0, 0, 0, 0, 0, 0, 0, 0, 0, 0, 0, 0, 0, 0, 0, 0, 0], [0, 0, 0, 0, 0, 0, 0, 0, 0, 0, 0, 0, 0, 0, 0, 0, 0, 0, 0, 0, 0, 0, 0, 0, 0], [31, 37, 36, 45, 41, 48, 43, 39, 35, 50, 32, 37, 31, 39, 44, 39, 40, 49, 46, 33, 36, 31, 45, 49, 46], [39, 44, 45, 35, 43, 47, 44, 50, 38, 45, 40, 47, 47, 44, 34, 47, 42, 34, 32, 46, 36, 44, 41, 50, 41], [45, 35, 41, 30, 36, 42, 50, 40, 48, 38, 42, 47, 39, 38, 37, 37, 48, 47, 41, 32, 43, 48, 41, 40, 37]], [[0, 0, 0, 0, 0, 0, 0, 0, 0, 0, 0, 0, 0, 0, 0, 0, 0, 0, 0, 0, 0, 0, 0, 0, 0], [0, 0, 0, 0, 0, 0, 0, 0, 0, 0, 0, 0, 0, 0, 0, 0, 0, 0, 0, 0, 0, 0, 0, 0, 0], [0, 0, 0, 0, 0, 0, 0, 0, 0, 0, 0, 0, 0, 0, 0, 0, 0, 0, 0, 0, 0, 0, 0, 0, 0], [48, 36, 34, 47, 43, 30, 38, 38, 34, 48, 30, 50, 45, 50, 43, 38, 30, 37, 31, 35, 34, 30, 34, 41, 47], [35, 47, 41, 43, 41, 47, 39, 49, 48, 34, 50, 36, 37, 30, 50, 49, 31, 43, 35, 39, 39, 41, 45, 41, 48]], [[0, 0, 0, 0, 0, 0, 0, 0, 0, 0, 0, 0, 0, 0, 0, 0, 0, 0, 0, 0, 0, 0, 0, 0, 0], [0, 0, 0, 0, 0, 0, 0, 0, 0, 0, 0, 0, 0, 0, 0, 0, 0, 0, 0, 0, 0, 0, 0, 0, 0], [0, 0, 0, 0, 0, 0, 0, 0, 0, 0, 0, 0, 0, 0, 0, 0, 0, 0, 0, 0, 0, 0, 0, 0, 0], [0, 0, 0, 0, 0, 0, 0, 0, 0, 0, 0, 0, 0, 0, 0, 0, 0, 0, 0, 0, 0, 0, 0, 0, 0], [32, 47, 40, 37, 49, 38, 44, 31, 39, 45, 34, 30, 38, 45, 47, 48, 31, 36, 39, 50, 48, 41, 32, 48, 42]], [[0, 0, 0, 0, 0, 0, 0, 0, 0, 0, 0, 0, 0, 0, 0, 0, 0, 0, 0, 0, 0, 0, 0, 0, 0], [0, 0, 0, 0, 0, 0, 0, 0, 0, 0, 0, 0, 0, 0, 0, 0, 0, 0, 0, 0, 0, 0, 0, 0, 0], [0, 0, 0, 0, 0, 0, 0, 0, 0, 0, 0, 0, 0, 0, 0, 0, 0, 0, 0, 0, 0, 0, 0, 0, 0], [0, 0, 0, 0, 0, 0, 0, 0, 0, 0, 0, 0, 0, 0, 0, 0, 0, 0, 0, 0, 0, 0, 0, 0, 0], [0, 0, 0, 0, 0, 0, 0, 0, 0, 0, 0, 0, 0, 0, 0, 0, 0, 0, 0, 0, 0, 0, 0, 0, 0]]];

q = [[[21], [18], [18], [5], [12], [23], [21], [12], [16], [20], [21], [23], [12], [9], [24], [6], [22], [22], [12], [20], [5], [11], [8], [6], [14]], [[9], [18], [18], [16], [22], [8], [10], [17], [15], [13], [22], [20], [19], [7], [10], [25], [15], [10], [21], [10], [23], [8], [6], [20], [11]], [[23], [8], [16], [25], [5], [14], [18], [12], [17], [21], [25], [12], [16], [24], [5], [18], [16], [21], [23], [9], [21], [25], [8], [5], [16]], [[14], [5], [18], [11], [15], [10], [10], [11], [6], [16], [7], [17], [20], [7], [24], [12], [6], [18], [8], [12], [17], [6], [25], [16], [23]], [[18], [18], [7], [21], [23], [13], [5], [15], [20], [24], [19], [21], [23], [10], [22], [23], [11], [22], [25], [7], [21], [11], [23], [13], [22]]];
Q = [[60], [59], [64], [53], [69]];
